(declare-fun var0 () String)
(assert (str.in.re var0 (re.++ (re.* (re.* (str.to.re ";"))) (re.++ (re.union (re.* (str.to.re "/")) (re.+ (str.to.re ":::"))) (re.++ (re.+ (re.* (str.to.re "..."))) (re.++ (re.union (re.+ (str.to.re ",,,")) (re.* (str.to.re "--"))) (re.++ (re.+ (re.union (str.to.re "*") (str.to.re "++"))) (re.++ (re.* (re.union (str.to.re "(((") (str.to.re ")"))) (re.++ (re.+ (re.union (str.to.re "&&&") (str.to.re "''"))) (re.++ (re.union (re.union (str.to.re """""") (str.to.re "###")) (re.union (str.to.re "$$$") (str.to.re "%%"))) (re.++ (re.+ (re.union (str.to.re "ZZ") (str.to.re "!!"))) (re.++ (re.+ (re.+ (str.to.re "Y"))) (re.++ (re.* (re.union (str.to.re "WW") (str.to.re "XX"))) (re.++ (re.union (re.* (str.to.re "TT")) (re.union (str.to.re "U") (str.to.re "VV"))) (re.++ (re.union (re.+ (str.to.re "RR")) (re.+ (str.to.re "S"))) (re.++ (re.union (re.* (str.to.re "P")) (re.+ (str.to.re "QQQ"))) (re.++ (re.+ (re.union (str.to.re "NNN") (str.to.re "O"))) (re.++ (re.union (re.* (str.to.re "LLL")) (re.+ (str.to.re "M"))) (re.++ (re.union (re.* (str.to.re "JJJ")) (re.* (str.to.re "KK"))) (re.++ (re.+ (re.* (str.to.re "II"))) (re.++ (re.union (re.+ (str.to.re "FFF")) (re.union (str.to.re "GG") (str.to.re "H"))) (re.++ (re.+ (re.+ (str.to.re "E"))) (re.++ (re.union (re.+ (str.to.re "BB")) (re.union (str.to.re "C") (str.to.re "DDD"))) (re.++ (re.* (re.+ (str.to.re "A"))) (re.++ (re.union (re.union (str.to.re "xxx") (str.to.re "y")) (re.+ (str.to.re "z"))) (re.++ (re.+ (re.+ (str.to.re "ww"))) (re.++ (re.+ (re.union (str.to.re "uuu") (str.to.re "v"))) (re.++ (re.+ (re.union (str.to.re "ss") (str.to.re "ttt"))) (re.++ (re.* (re.* (str.to.re "rr"))) (re.++ (re.+ (re.+ (str.to.re "qqq"))) (re.++ (re.* (re.+ (str.to.re "p"))) (re.++ (re.+ (re.+ (str.to.re "o"))) (re.++ (re.* (re.union (str.to.re "mm") (str.to.re "nn"))) (re.++ (re.+ (re.+ (str.to.re "lll"))) (re.++ (re.* (re.* (str.to.re "k"))) (re.++ (re.* (re.+ (str.to.re "jj"))) (re.++ (re.* (re.* (str.to.re "iii"))) (re.++ (re.* (re.+ (str.to.re "h"))) (re.++ (re.union (re.* (str.to.re "eee")) (re.union (str.to.re "f") (str.to.re "ggg"))) (re.++ (re.* (re.* (str.to.re "d"))) (re.++ (re.union (re.+ (str.to.re "aaa")) (re.union (str.to.re "b") (str.to.re "ccc"))) (re.++ (re.union (re.union (str.to.re "777") (str.to.re "8")) (re.+ (str.to.re "9"))) (re.++ (re.* (re.union (str.to.re "55") (str.to.re "66"))) (re.++ (re.* (re.* (str.to.re "444"))) (re.++ (re.+ (re.* (str.to.re "33"))) (re.++ (re.union (re.* (str.to.re "000")) (re.union (str.to.re "1") (str.to.re "222"))) (re.++ (re.* (re.union (str.to.re "}}") (str.to.re "~~"))) (re.++ (re.* (re.+ (str.to.re "|||"))) (re.++ (re.* (re.* (str.to.re "{{{"))) (re.++ (re.union (re.union (str.to.re "]]]") (str.to.re "^^")) (re.union (str.to.re "___") (str.to.re "```"))) (re.++ (re.union (re.union (str.to.re "??") (str.to.re "@")) (re.union (str.to.re "[") (str.to.re "\\"))) (re.++ (re.union (re.union (str.to.re "<") (str.to.re "=")) (re.+ (str.to.re ">"))) (re.++ (re.* (re.union (str.to.re ":") (str.to.re ";;"))) (re.++ (re.union (re.* (str.to.re "..")) (re.* (str.to.re "//"))) (re.++ (re.* (re.+ (str.to.re "---"))) (re.++ (re.+ (re.* (str.to.re ",,,"))) (re.++ (re.+ (re.union (str.to.re "*") (str.to.re "+"))) (re.++ (re.* (re.* (str.to.re ")"))) (re.++ (re.union (re.* (str.to.re "''")) (re.* (str.to.re "(("))) (re.++ (re.* (re.union (str.to.re "%%%") (str.to.re "&&&"))) (re.++ (re.union (re.union (str.to.re """""") (str.to.re "###")) (re.* (str.to.re "$$"))) (re.++ (re.* (re.* (str.to.re "!"))) (re.++ (re.union (re.+ (str.to.re "XXX")) (re.union (str.to.re "YYY") (str.to.re "ZZ"))) (re.++ (re.* (re.union (str.to.re "VV") (str.to.re "WW"))) (re.++ (re.* (re.* (str.to.re "UUU"))) (re.++ (re.+ (re.* (str.to.re "TT"))) (re.++ (re.union (re.union (str.to.re "QQ") (str.to.re "RR")) (re.* (str.to.re "SSS"))) (re.++ (re.+ (re.+ (str.to.re "PP"))) (re.++ (re.* (re.* (str.to.re "OO"))) (re.++ (re.+ (re.union (str.to.re "MM") (str.to.re "NNN"))) (re.++ (re.union (re.union (str.to.re "I") (str.to.re "J")) (re.union (str.to.re "K") (str.to.re "LL"))) (re.++ (re.* (re.+ (str.to.re "HH"))) (re.++ (re.* (re.+ (str.to.re "G"))) (re.++ (re.union (re.union (str.to.re "DDD") (str.to.re "E")) (re.+ (str.to.re "FFF"))) (re.++ (re.union (re.+ (str.to.re "B")) (re.+ (str.to.re "CC"))) (re.++ (re.union (re.+ (str.to.re "y")) (re.union (str.to.re "zzz") (str.to.re "AA"))) (re.++ (re.union (re.union (str.to.re "uu") (str.to.re "vv")) (re.union (str.to.re "w") (str.to.re "x"))) (re.++ (re.union (re.union (str.to.re "r") (str.to.re "sss")) (re.* (str.to.re "ttt"))) (re.++ (re.union (re.+ (str.to.re "ppp")) (re.* (str.to.re "q"))) (re.++ (re.union (re.+ (str.to.re "n")) (re.+ (str.to.re "ooo"))) (re.++ (re.+ (re.union (str.to.re "ll") (str.to.re "mmm"))) (re.++ (re.* (re.+ (str.to.re "kk"))) (re.++ (re.union (re.+ (str.to.re "ii")) (re.* (str.to.re "j"))) (re.++ (re.+ (re.union (str.to.re "gg") (str.to.re "hh"))) (re.++ (re.union (re.union (str.to.re "cc") (str.to.re "dd")) (re.union (str.to.re "e") (str.to.re "f"))) (re.++ (re.* (re.* (str.to.re "bb"))) (re.++ (re.+ (re.union (str.to.re "999") (str.to.re "aa"))) (re.++ (re.union (re.+ (str.to.re "66")) (re.union (str.to.re "777") (str.to.re "888"))) (re.++ (re.+ (re.* (str.to.re "5"))) (re.++ (re.union (re.+ (str.to.re "3")) (re.* (str.to.re "444"))) (re.++ (re.+ (re.+ (str.to.re "2"))) (re.++ (re.* (re.* (str.to.re "11"))) (re.* (re.* (str.to.re "0")))))))))))))))))))))))))))))))))))))))))))))))))))))))))))))))))))))))))))))))))))))))))))))))
(assert (not (str.in.re var0 (re.++ (re.+ (re.+ (str.to.re "XX"))) (re.++ (re.* (re.+ (str.to.re "WWW"))) (re.++ (re.+ (re.+ (str.to.re "V"))) (re.++ (re.+ (re.union (str.to.re "TTT") (str.to.re "U"))) (re.++ (re.+ (re.* (str.to.re "SS"))) (re.++ (re.+ (re.+ (str.to.re "RR"))) (re.++ (re.* (re.* (str.to.re "Q"))) (re.++ (re.+ (re.+ (str.to.re "P"))) (re.++ (re.+ (re.+ (str.to.re "O"))) (re.++ (re.+ (re.+ (str.to.re "NN"))) (re.++ (re.+ (re.+ (str.to.re "MMM"))) (re.++ (re.+ (re.union (str.to.re "K") (str.to.re "LLL"))) (re.++ (re.* (re.* (str.to.re "JJJ"))) (re.++ (re.* (re.+ (str.to.re "III"))) (re.++ (re.* (re.union (str.to.re "GG") (str.to.re "HHH"))) (re.++ (re.union (re.+ (str.to.re "D")) (re.union (str.to.re "E") (str.to.re "FF"))) (re.++ (re.* (re.union (str.to.re "B") (str.to.re "CCC"))) (re.++ (re.+ (re.* (str.to.re "AAA"))) (re.++ (re.+ (re.union (str.to.re "yy") (str.to.re "zzz"))) (re.++ (re.union (re.union (str.to.re "vvv") (str.to.re "w")) (re.* (str.to.re "xxx"))) (re.++ (re.+ (re.+ (str.to.re "uuu"))) (re.++ (re.union (re.union (str.to.re "qqq") (str.to.re "r")) (re.union (str.to.re "sss") (str.to.re "t"))) (re.++ (re.+ (re.+ (str.to.re "p"))) (re.++ (re.+ (re.* (str.to.re "o"))) (re.++ (re.+ (re.+ (str.to.re "nnn"))) (re.++ (re.union (re.union (str.to.re "j") (str.to.re "k")) (re.union (str.to.re "l") (str.to.re "mm"))) (re.++ (re.+ (re.+ (str.to.re "ii"))) (re.++ (re.union (re.* (str.to.re "gg")) (re.* (str.to.re "h"))) (re.++ (re.* (re.union (str.to.re "eee") (str.to.re "fff"))) (re.++ (re.union (re.union (str.to.re "bbb") (str.to.re "ccc")) (re.* (str.to.re "d"))) (re.++ (re.* (re.+ (str.to.re "aa"))) (re.++ (re.+ (re.+ (str.to.re "999"))) (re.++ (re.* (re.* (str.to.re "888"))) (re.++ (re.* (re.+ (str.to.re "7"))) (re.++ (re.union (re.* (str.to.re "5")) (re.* (str.to.re "666"))) (re.++ (re.+ (re.* (str.to.re "44"))) (re.++ (re.union (re.* (str.to.re "1")) (re.union (str.to.re "2") (str.to.re "3"))) (re.++ (re.+ (re.+ (str.to.re "000"))) (re.++ (re.+ (re.* (str.to.re "~"))) (re.++ (re.union (re.* (str.to.re "|")) (re.+ (str.to.re "}}}"))) (re.++ (re.* (re.union (str.to.re "```") (str.to.re "{"))) (re.++ (re.* (re.union (str.to.re "^") (str.to.re "_"))) (re.++ (re.* (re.union (str.to.re "\\") (str.to.re "]]"))) (re.++ (re.union (re.+ (str.to.re "@")) (re.* (str.to.re "["))) (re.++ (re.+ (re.union (str.to.re ">>>") (str.to.re "??"))) (re.++ (re.union (re.union (str.to.re "::") (str.to.re ";;")) (re.union (str.to.re "<") (str.to.re "="))) (re.++ (re.+ (re.union (str.to.re "..") (str.to.re "//"))) (re.++ (re.* (re.+ (str.to.re "-"))) (re.++ (re.+ (re.* (str.to.re ",,,"))) (re.++ (re.union (re.+ (str.to.re ")))")) (re.union (str.to.re "**") (str.to.re "+"))) (re.++ (re.+ (re.+ (str.to.re "("))) (re.++ (re.union (re.union (str.to.re "%%") (str.to.re "&")) (re.+ (str.to.re "'"))) (re.++ (re.+ (re.* (str.to.re "$$"))) (re.++ (re.* (re.union (str.to.re """""""") (str.to.re "##"))) (re.++ (re.union (re.union (str.to.re "YYY") (str.to.re "ZZZ")) (re.+ (str.to.re "!!!"))) (re.++ (re.+ (re.* (str.to.re "XXX"))) (re.++ (re.+ (re.+ (str.to.re "W"))) (re.++ (re.union (re.* (str.to.re "UUU")) (re.+ (str.to.re "V"))) (re.++ (re.+ (re.+ (str.to.re "TT"))) (re.++ (re.* (re.union (str.to.re "RR") (str.to.re "SSS"))) (re.++ (re.+ (re.union (str.to.re "PPP") (str.to.re "QQQ"))) (re.++ (re.union (re.union (str.to.re "M") (str.to.re "NN")) (re.+ (str.to.re "O"))) (re.++ (re.union (re.* (str.to.re "KKK")) (re.* (str.to.re "LL"))) (re.++ (re.union (re.* (str.to.re "I")) (re.+ (str.to.re "JJ"))) (re.++ (re.union (re.+ (str.to.re "FF")) (re.union (str.to.re "GGG") (str.to.re "HHH"))) (re.++ (re.* (re.union (str.to.re "DDD") (str.to.re "EEE"))) (re.++ (re.+ (re.+ (str.to.re "CC"))) (re.++ (re.* (re.+ (str.to.re "B"))) (re.++ (re.* (re.* (str.to.re "A"))) (re.++ (re.+ (re.union (str.to.re "yyy") (str.to.re "z"))) (re.++ (re.+ (re.+ (str.to.re "xxx"))) (re.++ (re.* (re.+ (str.to.re "www"))) (re.++ (re.+ (re.* (str.to.re "vvv"))) (re.++ (re.+ (re.union (str.to.re "ttt") (str.to.re "uuu"))) (re.++ (re.+ (re.+ (str.to.re "sss"))) (re.++ (re.+ (re.union (str.to.re "q") (str.to.re "rr"))) (re.++ (re.* (re.union (str.to.re "ooo") (str.to.re "ppp"))) (re.++ (re.* (re.+ (str.to.re "n"))) (re.++ (re.union (re.union (str.to.re "kkk") (str.to.re "lll")) (re.+ (str.to.re "mmm"))) (re.++ (re.* (re.+ (str.to.re "j"))) (re.++ (re.* (re.union (str.to.re "h") (str.to.re "iii"))) (re.++ (re.union (re.* (str.to.re "f")) (re.+ (str.to.re "g"))) (re.++ (re.+ (re.+ (str.to.re "ee"))) (re.++ (re.+ (re.union (str.to.re "c") (str.to.re "ddd"))) (re.++ (re.+ (re.+ (str.to.re "bbb"))) (re.++ (re.union (re.+ (str.to.re "9")) (re.* (str.to.re "a"))) (re.++ (re.+ (re.+ (str.to.re "8"))) (re.++ (re.* (re.union (str.to.re "6") (str.to.re "77"))) (re.++ (re.* (re.union (str.to.re "4") (str.to.re "5"))) (re.++ (re.union (re.* (str.to.re "111")) (re.union (str.to.re "22") (str.to.re "333"))) (re.+ (re.+ (str.to.re "00"))))))))))))))))))))))))))))))))))))))))))))))))))))))))))))))))))))))))))))))))))))))))))))))))
(check-sat)